
Value of objective function: 0

Actual values of the variables:
pL1_div_from_law                0
comp_pos0                       0
comp_neg0                       0
comp_pos1                       0
comp_neg1                       0
comp_pos2                       0
comp_neg2                       0
comp_pos3                       0
comp_neg3                       0
comp_pos4                       0
comp_neg4                       0
comp_pos5                       0
comp_neg5                       0
comp_pos6                       0
comp_neg6                       0
comp_pos7                       0
comp_neg7                       0
comp_pos8                       0
comp_neg8                       0
comp_pos9                       0
comp_neg9                       0
comp_pos10                      0
comp_neg10                      0
comp_pos11                      0
comp_neg11                      0
comp_pos12                      0
comp_neg12                      0
comp_pos13                      0
comp_neg13                      0
z_c0_t0               1.32138e+10
p0_c0_t0              5.46598e+09
p1_c0_t0               1.0423e+08
p2_c0_t0              6.51222e+09
p3_c0_t0              1.13141e+09
diff0                           0
normdiff0                       0
z_c0_t1               1.47752e+10
p0_c0_t1              4.79713e+09
p1_c0_t1              1.16885e+08
p2_c0_t1              8.34238e+09
p3_c0_t1              1.51879e+09
diff1                           0
normdiff1                       0
z_c1_t0               1.65566e+10
p0_c1_t0              5.58175e+09
p1_c1_t0              1.35265e+08
p2_c1_t0              9.92234e+09
p3_c1_t0              9.17221e+08
diff2                           0
normdiff2                       0
z_c1_t1               1.94959e+10
p0_c1_t1              5.68155e+09
p1_c1_t1              1.92432e+08
p2_c1_t1               1.3109e+10
p3_c1_t1              5.12855e+08
diff3                           0
normdiff3                       0
z_c2_t0               7.24754e+09
p0_c2_t0              1.88558e+09
p1_c2_t0              5.46506e+07
p2_c2_t0              4.86904e+09
p3_c2_t0              4.38273e+08
diff4                           0
normdiff4                       0
z_c2_t1               7.97123e+09
p0_c2_t1                1.546e+09
p1_c2_t1              6.38795e+07
p2_c2_t1              6.03056e+09
p3_c2_t1              3.30779e+08
diff5                           0
normdiff5                       0
z_c3_t0               1.22612e+10
p0_c3_t0              3.41146e+09
p1_c3_t0              9.34316e+07
p2_c3_t0              6.90182e+09
p3_c3_t0              1.85448e+09
diff6                           0
normdiff6                       0
z_c3_t1               1.42798e+10
p0_c3_t1              3.89728e+09
p1_c3_t1              9.56852e+07
p2_c3_t1              7.64587e+09
p3_c3_t1              2.64094e+09
diff7                           0
normdiff7                       0
z_c4_t0               7.97197e+09
p0_c4_t0              1.50573e+09
p1_c4_t0              1.05596e+08
p2_c4_t0              6.00878e+09
p3_c4_t0              3.51855e+08
diff8                           0
normdiff8                       0
z_c4_t1                8.9819e+09
p0_c4_t1              1.57256e+09
p1_c4_t1              9.62536e+07
p2_c4_t1              7.08729e+09
p3_c4_t1              2.25797e+08
diff9                           0
normdiff9                       0
z_c5_t0               1.00642e+10
p0_c5_t0              2.65531e+09
p1_c5_t0              8.73435e+07
p2_c5_t0              7.05054e+09
p3_c5_t0              2.70962e+08
diff10                          0
normdiff10                      0
z_c5_t1                1.2016e+10
p0_c5_t1              1.95923e+09
p1_c5_t1              8.73811e+07
p2_c5_t1              9.57882e+09
p3_c5_t1              3.90575e+08
diff11                          0
normdiff11                      0
z_c6_t0               1.81204e+10
p0_c6_t0              4.84837e+09
p1_c6_t0              1.11448e+08
p2_c6_t0               1.2276e+10
p3_c6_t0              8.84528e+08
diff12                          0
normdiff12                      0
z_c6_t1               2.06345e+10
p0_c6_t1              5.26545e+09
p1_c6_t1              1.03172e+08
p2_c6_t1              1.49341e+10
p3_c6_t1              3.31752e+08
diff13                          0
normdiff13                      0
